Route #1: 22 18 52 45
Route #2: 41 47 30 51 34 31 27
Route #3: 8 56 21 53 17 10
Route #4: 9 44 43 35 11 12
Route #5: 16 19 54 55 5 23 33 32 42
Route #6: 57 15 13 25 49 38
Route #7: 59 2 58 40 26 7
Route #8: 6 50 29 28 4 39 20 36
Route #9: 1 3 24 14
Route #10: 48 46 37

Cost: 4031.3871212027157
